CMPL model generation - running

CMPL version: 1.11.0
Authors: Thomas Schleiff, Mike Steglich
Distributed under the GPLv3 

create model instance ...
write model instance ...
CMPL model generation - finished

Solver - running


Welcome to IBM(R) ILOG(R) CPLEX(R) Interactive Optimizer 12.7.1.0
  with Simplex, Mixed Integer & Barrier Optimizers
5725-A06 5725-A29 5724-Y48 5724-Y49 5724-Y54 5724-Y55 5655-Y21
Copyright IBM Corp. 1988, 2017.  All Rights Reserved.

Type 'help' for a list of available commands.
Type 'help' followed by a command name for more
information on commands.

CPLEX> Specified objective sense: MINIMIZE
Selected objective  name:  line[1]
Selected RHS        name:  RHS
Selected bound      name:  BOUND
Problem '/tmp/cmpl.T24145.mps' read.
Read time = 0.07 sec. (8.17 ticks)
CPLEX> CPXPARAM_Read_APIEncoding                        "UTF-8"
Tried aggregator 3 times.
MIP Presolve eliminated 19210 rows and 30651 columns.
MIP Presolve modified 340 coefficients.
Aggregator did 639 substitutions.
Reduced MIP has 2506 rows, 3303 columns, and 9621 nonzeros.
Reduced MIP has 3135 binaries, 0 generals, 0 SOSs, and 0 indicators.
Presolve time = 0.07 sec. (43.20 ticks)
Found incumbent of value 841.338277 after 0.11 sec. (65.44 ticks)
Probing fixed 8 vars, tightened 0 bounds.
Probing time = 0.01 sec. (4.33 ticks)
Tried aggregator 1 time.
MIP Presolve eliminated 0 rows and 8 columns.
MIP Presolve modified 41 coefficients.
Reduced MIP has 2506 rows, 3295 columns, and 9605 nonzeros.
Reduced MIP has 3295 binaries, 0 generals, 0 SOSs, and 0 indicators.
Presolve time = 0.01 sec. (8.17 ticks)
Probing time = 0.01 sec. (2.68 ticks)
Clique table members: 5892.
MIP emphasis: balance optimality and feasibility.
MIP search method: dynamic search.
Parallel mode: none, using 1 thread.
Root relaxation solution time = 0.01 sec. (4.84 ticks)

        Nodes                                         Cuts/
   Node  Left     Objective  IInf  Best Integer    Best Bound    ItCnt     Gap

*     0+    0                          841.3383      -46.0638           105.48%
      0     0      189.6722    12      841.3383      189.6722      157   77.46%
*     0+    0                          199.6676      189.6722             5.01%
*     0+    0                          190.0151      189.6722             0.18%
      0     0      189.8843     2      190.0151      Cuts: 29      167    0.07%
*     0+    0                          189.9063      189.8843             0.01%
      0     0        cutoff            189.9063                    167    0.00%
Elapsed time = 0.20 sec. (109.91 ticks, tree = 0.01 MB, solutions = 4)

GUB cover cuts applied:  2
Clique cuts applied:  8
Cover cuts applied:  12
Gomory fractional cuts applied:  7

Root node processing (before b&c):
  Real time             =    0.20 sec. (111.63 ticks)
Sequential b&c:
  Real time             =    0.00 sec. (0.00 ticks)
                          ------------
Total (root+branch&cut) =    0.20 sec. (111.63 ticks)

Solution pool: 4 solutions saved.

MIP - Integer optimal solution:  Objective =  1.8990627500e+02
Solution time =    0.20 sec.  Iterations = 167  Nodes = 0
Deterministic time = 111.73 ticks  (555.98 ticks/sec)

CPLEX> Incumbent solution written to file '/tmp/cmpl.T24145.gsol'.
CPLEX> 
CMPL: Time used for model generation: 1 seconds
CMPL: Time used for solving the model: 1 seconds


Solution written to ASCII file: results/output_generated_conf_0.5/2016-01-04-4/fair-nonlinear.sol

Solver - finished
